DIMACS2
40 107 35 140 40 193 45 212 282 271 278 96 123 264 270 15 189 101 125 158 61 102 219 170 73 8 298 202 176 262 196 172 201 183 167 256 295 216 313 248 292
p edge 320 1309
e 0 81 1.0
e 0 168 1.0
e 0 218 1.0
e 1 108 1.0
e 1 67 1.0
e 1 94 2.0
e 1 70 2.0
e 2 226 1.0
e 2 53 2.0
e 2 124 1.0
e 2 178 1.0
e 3 305 1.0
e 3 166 1.0
e 3 274 1.0
e 3 106 1.0
e 4 202 9.0
e 4 278 49.0
e 4 228 1.0
e 4 26 1.0
e 5 61 18.0
e 5 12 1.0
e 5 47 2.0
e 5 260 1.0
e 6 105 1.0
e 6 54 2.0
e 6 196 27.0
e 6 95 1.0
e 7 187 1.0
e 7 162 2.0
e 7 82 2.0
e 7 31 2.0
e 8 11 6.0
e 8 32 13.0
e 8 24 25.0
e 8 316 3.0
e 9 54 1.0
e 9 201 17.0
e 9 179 2.0
e 9 231 1.0
e 10 265 1.0
e 10 168 2.0
e 10 26 1.0
e 10 271 16.0
e 11 210 1.0
e 11 250 1.0
e 11 167 33.0
e 11 48 1.0
e 12 152 1.0
e 12 305 1.0
e 12 151 1.0
e 12 115 1.0
e 13 2 1.0
e 13 274 1.0
e 13 217 1.0
e 13 157 1.0
e 14 31 1.0
e 14 47 2.0
e 14 158 21.0
e 14 305 1.0
e 15 287 28.0
e 15 91 28.0
e 15 4 7.0
e 15 314 7.0
e 16 205 1.0
e 16 306 1.0
e 16 207 1.0
e 16 62 3.0
e 17 80 1.0
e 17 177 2.0
e 17 150 2.0
e 17 315 1.0
e 18 90 2.0
e 18 190 1.0
e 18 133 2.0
e 18 86 2.0
e 19 235 1.0
e 19 307 1.0
e 19 166 1.0
e 19 263 2.0
e 20 174 1.0
e 20 218 1.0
e 20 233 1.0
e 20 186 1.0
e 21 260 1.0
e 21 191 1.0
e 21 253 1.0
e 21 181 2.0
e 22 288 1.0
e 22 242 1.0
e 22 292 33.0
e 22 271 42.0
e 23 83 3.0
e 23 224 2.0
e 23 34 1.0
e 23 177 1.0
e 24 119 1.0
e 24 90 1.0
e 24 83 1.0
e 24 44 1.0
e 25 79 1.0
e 25 29 1.0
e 25 288 1.0
e 25 294 2.0
e 26 238 1.0
e 26 318 1.0
e 26 77 1.0
e 26 219 20.0
e 27 36 1.0
e 27 40 10.0
e 27 87 1.0
e 27 203 1.0
e 28 6 1.0
e 28 274 2.0
e 28 107 29.0
e 28 300 1.0
e 29 307 1.0
e 29 224 1.0
e 29 211 1.0
e 29 120 1.0
e 30 278 22.0
e 30 145 1.0
e 30 285 1.0
e 30 160 2.0
e 31 216 44.0
e 31 278 38.0
e 31 282 3.0
e 31 249 1.0
e 32 142 1.0
e 32 102 17.0
e 32 13 1.0
e 32 101 25.0
e 33 279 1.0
e 33 32 2.0
e 33 28 1.0
e 33 296 1.0
e 34 0 1.0
e 34 95 1.0
e 34 94 1.0
e 34 21 1.0
e 35 29 31.0
e 35 2 37.0
e 35 15 24.0
e 35 266 24.0
e 35 183 6.0
e 35 123 19.0
e 35 248 37.0
e 35 212 26.0
e 36 110 1.0
e 36 122 1.0
e 36 140 30.0
e 36 245 1.0
e 37 166 1.0
e 37 20 1.0
e 37 226 1.0
e 37 139 1.0
e 38 163 2.0
e 38 127 2.0
e 38 172 40.0
e 38 199 1.0
e 39 23 2.0
e 39 212 5.0
e 39 290 1.0
e 39 157 1.0
e 40 0 38.0
e 40 308 48.0
e 40 142 46.0
e 40 283 21.0
e 40 45 4.0
e 40 158 1.0
e 41 95 1.0
e 41 310 1.0
e 41 265 1.0
e 41 87 2.0
e 42 264 43.0
e 42 118 1.0
e 42 292 3.0
e 42 112 2.0
e 43 132 2.0
e 43 219 18.0
e 43 111 2.0
e 43 26 1.0
e 44 104 1.0
e 44 33 3.0
e 44 27 1.0
e 44 48 1.0
e 45 314 22.0
e 45 260 31.0
e 45 16 4.0
e 45 276 28.0
e 46 269 1.0
e 46 212 43.0
e 46 302 3.0
e 46 253 1.0
e 47 28 1.0
e 47 187 2.0
e 47 77 1.0
e 47 290 1.0
e 48 70 2.0
e 48 123 15.0
e 48 81 1.0
e 48 152 2.0
e 49 28 2.0
e 49 68 2.0
e 49 72 1.0
e 49 207 1.0
e 50 19 1.0
e 50 270 15.0
e 50 8 11.0
e 50 131 1.0
e 51 114 1.0
e 51 137 1.0
e 51 125 44.0
e 51 64 1.0
e 52 189 22.0
e 52 315 1.0
e 52 102 45.0
e 52 119 1.0
e 53 5 1.0
e 53 39 1.0
e 53 144 1.0
e 53 155 1.0
e 54 88 2.0
e 54 151 1.0
e 54 199 2.0
e 54 30 1.0
e 55 50 1.0
e 55 238 1.0
e 55 142 1.0
e 55 120 1.0
e 56 48 2.0
e 56 146 1.0
e 56 153 1.0
e 56 117 2.0
e 57 23 2.0
e 57 72 1.0
e 57 129 2.0
e 57 216 7.0
e 58 288 1.0
e 58 305 1.0
e 58 313 31.0
e 58 262 10.0
e 59 50 1.0
e 59 300 1.0
e 59 290 1.0
e 59 123 42.0
e 60 119 2.0
e 60 8 27.0
e 60 44 1.0
e 60 1 2.0
e 61 144 44.0
e 61 250 49.0
e 61 152 36.0
e 61 297 12.0
e 61 158 15.0
e 61 107 44.0
e 62 112 1.0
e 62 1 1.0
e 62 8 2.0
e 62 180 2.0
e 63 54 1.0
e 63 51 1.0
e 63 155 1.0
e 63 258 1.0
e 64 217 1.0
e 64 198 1.0
e 64 89 1.0
e 64 211 1.0
e 65 236 2.0
e 65 281 1.0
e 65 146 2.0
e 65 199 2.0
e 66 10 1.0
e 66 249 1.0
e 66 15 38.0
e 66 137 1.0
e 67 56 1.0
e 67 52 2.0
e 67 22 2.0
e 67 93 2.0
e 68 312 1.0
e 68 27 1.0
e 68 2 1.0
e 68 288 1.0
e 69 311 1.0
e 69 71 2.0
e 69 253 2.0
e 69 234 1.0
e 70 163 1.0
e 70 91 1.0
e 70 300 1.0
e 70 306 1.0
e 71 256 33.0
e 71 46 1.0
e 71 207 1.0
e 71 105 2.0
e 72 157 1.0
e 72 181 1.0
e 72 18 1.0
e 72 274 1.0
e 73 66 46.0
e 73 218 36.0
e 73 317 29.0
e 73 131 2.0
e 73 248 40.0
e 73 15 16.0
e 74 214 2.0
e 74 67 2.0
e 74 16 1.0
e 74 248 46.0
e 75 2 1.0
e 75 23 1.0
e 75 21 1.0
e 75 225 1.0
e 76 278 40.0
e 76 176 41.0
e 76 67 2.0
e 76 52 1.0
e 77 140 13.0
e 77 80 1.0
e 77 107 21.0
e 77 115 1.0
e 78 138 1.0
e 78 310 1.0
e 78 109 1.0
e 78 312 1.0
e 79 109 1.0
e 79 121 1.0
e 79 115 1.0
e 79 93 1.0
e 80 183 10.0
e 80 185 2.0
e 80 209 1.0
e 80 12 1.0
e 81 244 1.0
e 81 313 49.0
e 81 194 1.0
e 81 42 1.0
e 82 44 1.0
e 82 4 1.0
e 82 108 1.0
e 82 299 1.0
e 83 213 2.0
e 83 246 2.0
e 83 251 1.0
e 83 14 2.0
e 84 268 3.0
e 84 291 1.0
e 84 27 1.0
e 84 205 1.0
e 85 45 7.0
e 85 284 1.0
e 85 198 1.0
e 85 8 36.0
e 86 224 2.0
e 86 274 1.0
e 86 244 1.0
e 86 150 1.0
e 87 287 2.0
e 87 128 2.0
e 87 148 1.0
e 88 97 1.0
e 88 44 1.0
e 88 314 1.0
e 88 246 1.0
e 89 307 1.0
e 89 47 1.0
e 89 95 1.0
e 89 286 1.0
e 90 99 1.0
e 90 188 2.0
e 90 172 28.0
e 90 58 1.0
e 91 33 2.0
e 91 280 2.0
e 91 267 1.0
e 91 119 1.0
e 92 230 2.0
e 92 29 1.0
e 92 139 1.0
e 92 35 31.0
e 93 142 2.0
e 93 5 2.0
e 93 196 15.0
e 93 112 1.0
e 94 24 2.0
e 94 205 2.0
e 94 141 1.0
e 94 28 2.0
e 95 251 1.0
e 95 39 1.0
e 95 208 1.0
e 95 309 1.0
e 96 143 34.0
e 96 53 4.0
e 96 33 10.0
e 96 219 2.0
e 96 264 37.0
e 96 40 42.0
e 97 81 2.0
e 97 258 1.0
e 97 26 1.0
e 97 263 1.0
e 98 181 2.0
e 98 162 1.0
e 98 225 1.0
e 98 148 1.0
e 99 135 1.0
e 99 163 1.0
e 99 106 1.0
e 99 115 1.0
e 100 72 1.0
e 100 130 1.0
e 100 266 1.0
e 100 89 1.0
e 101 10 31.0
e 101 209 1.0
e 101 126 14.0
e 101 266 26.0
e 101 107 42.0
e 101 202 40.0
e 101 96 41.0
e 102 128 10.0
e 102 116 44.0
e 102 4 1.0
e 102 308 2.0
e 102 170 14.0
e 102 101 30.0
e 103 85 1.0
e 103 201 8.0
e 103 75 1.0
e 103 24 1.0
e 104 253 1.0
e 104 45 22.0
e 104 26 1.0
e 104 246 1.0
e 105 288 1.0
e 105 5 1.0
e 105 97 1.0
e 105 126 1.0
e 106 10 1.0
e 106 224 1.0
e 106 178 1.0
e 106 223 1.0
e 107 24 36.0
e 107 308 5.0
e 107 1 18.0
e 107 214 10.0
e 108 221 1.0
e 108 4 1.0
e 108 20 1.0
e 108 60 1.0
e 109 24 1.0
e 109 41 1.0
e 109 113 2.0
e 109 157 1.0
e 110 33 1.0
e 110 159 1.0
e 110 94 1.0
e 110 260 1.0
e 111 148 3.0
e 111 176 6.0
e 111 281 2.0
e 111 205 1.0
e 112 304 2.0
e 112 179 1.0
e 112 207 2.0
e 112 181 2.0
e 113 21 1.0
e 113 268 2.0
e 113 135 1.0
e 113 288 1.0
e 114 84 1.0
e 114 55 1.0
e 114 126 2.0
e 114 52 1.0
e 115 47 1.0
e 115 94 2.0
e 115 27 1.0
e 115 213 1.0
e 116 176 32.0
e 116 265 1.0
e 116 166 1.0
e 116 238 2.0
e 117 171 1.0
e 117 283 1.0
e 117 284 1.0
e 117 95 1.0
e 118 122 1.0
e 118 227 1.0
e 118 95 1.0
e 118 222 1.0
e 119 308 1.0
e 119 114 1.0
e 119 210 1.0
e 119 166 1.0
e 120 45 1.0
e 120 313 34.0
e 120 307 1.0
e 120 282 32.0
e 121 263 2.0
e 121 170 23.0
e 121 158 21.0
e 121 199 1.0
e 122 176 32.0
e 122 314 1.0
e 122 54 1.0
e 122 25 1.0
e 123 83 48.0
e 123 63 7.0
e 123 174 28.0
e 123 69 1.0
e 124 130 1.0
e 124 237 1.0
e 124 12 1.0
e 124 198 2.0
e 125 290 6.0
e 125 258 4.0
e 125 94 49.0
e 125 171 8.0
e 125 167 9.0
e 125 202 37.0
e 125 170 4.0
e 125 61 6.0
e 126 296 1.0
e 126 174 1.0
e 126 206 2.0
e 126 78 1.0
e 127 201 21.0
e 127 314 1.0
e 127 184 1.0
e 127 73 24.0
e 128 156 1.0
e 128 318 1.0
e 128 28 1.0
e 128 224 2.0
e 129 18 2.0
e 129 143 1.0
e 129 158 32.0
e 129 43 3.0
e 130 224 1.0
e 130 127 1.0
e 130 281 1.0
e 130 199 1.0
e 131 173 1.0
e 131 77 1.0
e 131 126 1.0
e 131 37 1.0
e 132 272 1.0
e 132 83 2.0
e 132 315 1.0
e 132 110 1.0
e 133 255 1.0
e 133 176 22.0
e 133 258 1.0
e 133 164 1.0
e 134 118 1.0
e 134 265 1.0
e 134 72 1.0
e 134 175 1.0
e 135 25 1.0
e 135 103 1.0
e 135 294 1.0
e 136 106 1.0
e 136 48 1.0
e 136 126 2.0
e 136 275 1.0
e 137 190 1.0
e 137 187 1.0
e 137 97 1.0
e 138 31 2.0
e 138 6 2.0
e 138 251 2.0
e 138 37 1.0
e 139 181 1.0
e 139 1 1.0
e 139 218 1.0
e 139 305 1.0
e 140 61 27.0
e 140 232 43.0
e 140 170 46.0
e 140 228 41.0
e 141 213 1.0
e 141 110 2.0
e 141 162 2.0
e 141 176 38.0
e 142 183 29.0
e 142 316 1.0
e 142 85 1.0
e 142 46 1.0
e 143 4 1.0
e 143 87 2.0
e 143 26 1.0
e 143 313 13.0
e 144 5 1.0
e 144 260 1.0
e 144 189 4.0
e 144 114 1.0
e 145 173 1.0
e 145 156 1.0
e 145 283 1.0
e 145 66 1.0
e 146 175 1.0
e 146 241 1.0
e 146 89 1.0
e 146 98 2.0
e 147 233 1.0
e 147 268 1.0
e 147 185 2.0
e 147 104 1.0
e 148 191 1.0
e 148 130 1.0
e 148 250 1.0
e 148 140 47.0
e 149 312 1.0
e 149 65 2.0
e 149 118 1.0
e 149 23 1.0
e 150 4 1.0
e 150 247 2.0
e 150 92 2.0
e 150 111 2.0
e 151 72 1.0
e 151 86 2.0
e 151 63 1.0
e 151 271 13.0
e 152 1 1.0
e 152 318 1.0
e 152 202 6.0
e 152 234 1.0
e 153 289 1.0
e 153 148 1.0
e 153 44 1.0
e 153 13 1.0
e 154 242 2.0
e 154 124 1.0
e 154 180 1.0
e 154 165 1.0
e 155 274 1.0
e 155 215 1.0
e 155 150 1.0
e 155 10 1.0
e 156 57 1.0
e 156 10 1.0
e 156 235 1.0
e 156 16 2.0
e 157 303 1.0
e 157 69 1.0
e 157 67 2.0
e 158 311 39.0
e 158 56 11.0
e 158 261 15.0
e 158 11 44.0
e 159 57 1.0
e 159 45 35.0
e 159 314 1.0
e 159 79 1.0
e 160 162 1.0
e 160 136 1.0
e 160 111 1.0
e 160 16 1.0
e 161 4 1.0
e 161 159 1.0
e 161 75 1.0
e 161 86 1.0
e 162 188 1.0
e 162 115 2.0
e 162 112 1.0
e 162 168 1.0
e 163 207 1.0
e 163 47 2.0
e 163 129 1.0
e 164 140 36.0
e 164 199 1.0
e 164 69 2.0
e 164 22 1.0
e 165 197 1.0
e 165 297 3.0
e 165 243 1.0
e 165 279 1.0
e 166 152 1.0
e 166 43 1.0
e 166 316 1.0
e 166 24 1.0
e 167 273 6.0
e 167 230 6.0
e 167 85 3.0
e 167 279 47.0
e 167 73 20.0
e 167 313 18.0
e 167 35 47.0
e 168 146 1.0
e 168 176 29.0
e 168 185 2.0
e 168 317 2.0
e 169 196 42.0
e 169 47 1.0
e 169 111 1.0
e 169 258 1.0
e 170 202 43.0
e 170 44 8.0
e 170 5 14.0
e 171 205 1.0
e 171 60 1.0
e 171 105 1.0
e 171 189 33.0
e 172 222 11.0
e 172 250 18.0
e 172 162 18.0
e 172 53 32.0
e 172 196 2.0
e 173 285 2.0
e 173 260 1.0
e 173 186 1.0
e 173 118 1.0
e 174 37 1.0
e 174 32 1.0
e 174 185 1.0
e 174 76 1.0
e 175 168 1.0
e 175 139 1.0
e 175 257 1.0
e 175 169 1.0
e 176 87 7.0
e 176 65 15.0
e 176 7 14.0
e 176 63 40.0
e 177 32 2.0
e 177 257 1.0
e 177 262 6.0
e 177 240 1.0
e 178 282 4.0
e 178 251 1.0
e 178 128 2.0
e 178 224 1.0
e 179 4 1.0
e 179 84 1.0
e 179 199 1.0
e 179 285 1.0
e 180 169 1.0
e 180 171 1.0
e 180 110 1.0
e 180 41 1.0
e 181 294 2.0
e 181 157 3.0
e 181 278 35.0
e 181 254 1.0
e 182 174 2.0
e 182 7 1.0
e 182 77 1.0
e 182 12 1.0
e 183 63 16.0
e 183 120 4.0
e 183 44 49.0
e 183 233 32.0
e 184 106 1.0
e 184 155 1.0
e 184 82 1.0
e 184 11 1.0
e 185 8 23.0
e 185 181 1.0
e 185 131 2.0
e 185 143 2.0
e 186 114 1.0
e 186 48 2.0
e 186 164 2.0
e 186 130 1.0
e 187 93 1.0
e 187 108 1.0
e 187 262 42.0
e 187 159 1.0
e 188 172 17.0
e 188 309 1.0
e 188 315 1.0
e 188 294 1.0
e 189 22 26.0
e 189 124 25.0
e 189 18 17.0
e 189 303 3.0
e 190 65 1.0
e 190 276 1.0
e 190 263 1.0
e 190 250 1.0
e 191 59 1.0
e 191 89 2.0
e 191 183 21.0
e 191 234 2.0
e 192 292 41.0
e 192 201 29.0
e 192 164 1.0
e 192 315 1.0
e 193 148 18.0
e 193 67 45.0
e 193 6 47.0
e 193 247 12.0
e 193 102 1.0
e 193 216 40.0
e 193 248 20.0
e 194 170 23.0
e 194 70 1.0
e 194 31 1.0
e 194 268 1.0
e 195 266 1.0
e 195 290 1.0
e 195 197 1.0
e 195 286 2.0
e 196 37 33.0
e 196 63 30.0
e 196 282 35.0
e 196 53 39.0
e 197 302 2.0
e 197 139 1.0
e 197 295 7.0
e 197 15 8.0
e 198 20 1.0
e 198 300 1.0
e 198 312 1.0
e 198 68 1.0
e 199 147 1.0
e 199 120 1.0
e 199 95 1.0
e 199 234 1.0
e 200 260 1.0
e 200 133 2.0
e 200 69 2.0
e 200 255 1.0
e 201 3 42.0
e 201 17 46.0
e 201 22 37.0
e 201 14 23.0
e 202 237 7.0
e 202 246 34.0
e 202 37 1.0
e 202 171 3.0
e 203 75 1.0
e 203 228 2.0
e 203 217 1.0
e 203 318 1.0
e 204 57 2.0
e 204 116 1.0
e 204 156 2.0
e 204 15 44.0
e 205 311 1.0
e 205 298 38.0
e 205 195 2.0
e 205 204 1.0
e 206 199 1.0
e 206 5 1.0
e 206 92 1.0
e 207 253 1.0
e 207 255 1.0
e 207 212 4.0
e 207 25 2.0
e 208 260 1.0
e 208 204 2.0
e 208 314 1.0
e 208 275 1.0
e 209 77 1.0
e 209 193 19.0
e 209 139 1.0
e 209 243 1.0
e 210 212 21.0
e 210 281 1.0
e 210 276 1.0
e 210 95 1.0
e 211 66 1.0
e 211 275 1.0
e 211 149 1.0
e 211 290 1.0
e 212 104 9.0
e 212 193 5.0
e 212 14 2.0
e 213 230 2.0
e 213 131 2.0
e 213 227 1.0
e 213 99 1.0
e 214 178 2.0
e 214 305 2.0
e 214 233 1.0
e 214 92 1.0
e 215 82 2.0
e 215 165 1.0
e 215 278 12.0
e 215 28 1.0
e 216 32 13.0
e 216 223 21.0
e 216 245 16.0
e 216 231 26.0
e 216 219 47.0
e 217 262 4.0
e 217 32 1.0
e 217 220 1.0
e 217 111 2.0
e 218 149 1.0
e 218 110 1.0
e 218 177 1.0
e 218 140 40.0
e 219 112 2.0
e 219 310 13.0
e 219 128 28.0
e 219 68 17.0
e 219 107 44.0
e 220 170 11.0
e 220 49 2.0
e 220 173 1.0
e 220 201 20.0
e 221 136 1.0
e 221 316 1.0
e 221 307 1.0
e 221 184 1.0
e 222 298 5.0
e 222 153 1.0
e 222 278 10.0
e 222 12 1.0
e 223 188 1.0
e 223 156 1.0
e 223 176 43.0
e 223 265 1.0
e 224 183 47.0
e 224 304 1.0
e 224 232 2.0
e 224 67 2.0
e 225 249 1.0
e 225 53 1.0
e 225 62 2.0
e 225 226 1.0
e 226 13 1.0
e 226 109 1.0
e 226 77 1.0
e 226 36 1.0
e 227 122 1.0
e 227 69 2.0
e 227 255 1.0
e 227 33 1.0
e 228 305 2.0
e 228 105 1.0
e 228 5 1.0
e 228 291 2.0
e 229 87 1.0
e 229 33 2.0
e 229 230 1.0
e 229 182 1.0
e 230 153 1.0
e 230 22 1.0
e 230 30 2.0
e 230 258 2.0
e 231 300 1.0
e 231 224 1.0
e 231 115 1.0
e 231 260 1.0
e 232 250 1.0
e 232 283 1.0
e 232 186 1.0
e 232 77 1.0
e 233 129 1.0
e 233 3 1.0
e 233 282 32.0
e 233 252 1.0
e 234 184 1.0
e 234 214 1.0
e 234 282 37.0
e 234 275 1.0
e 235 311 1.0
e 235 226 1.0
e 235 148 1.0
e 235 7 1.0
e 236 2 2.0
e 236 225 1.0
e 236 94 2.0
e 236 273 1.0
e 237 71 1.0
e 237 112 1.0
e 237 101 35.0
e 237 89 1.0
e 238 8 15.0
e 238 221 1.0
e 238 209 1.0
e 238 229 2.0
e 239 240 3.0
e 239 50 1.0
e 239 119 1.0
e 239 11 1.0
e 240 96 22.0
e 240 228 1.0
e 240 110 2.0
e 240 89 1.0
e 241 248 25.0
e 241 275 1.0
e 241 97 1.0
e 241 64 1.0
e 242 259 1.0
e 242 27 1.0
e 242 286 2.0
e 242 5 1.0
e 243 264 48.0
e 243 15 45.0
e 243 195 1.0
e 243 141 2.0
e 244 50 1.0
e 244 255 1.0
e 244 238 2.0
e 244 73 48.0
e 245 128 1.0
e 245 172 43.0
e 245 268 2.0
e 245 112 2.0
e 246 68 1.0
e 246 242 1.0
e 246 21 1.0
e 246 73 6.0
e 247 94 1.0
e 247 77 2.0
e 247 178 2.0
e 247 269 2.0
e 248 234 23.0
e 248 138 43.0
e 248 59 2.0
e 248 210 31.0
e 249 33 1.0
e 249 228 1.0
e 249 242 1.0
e 249 308 1.0
e 250 120 1.0
e 250 205 1.0
e 250 293 1.0
e 250 45 3.0
e 251 59 1.0
e 251 241 1.0
e 251 123 29.0
e 251 144 1.0
e 252 118 1.0
e 252 247 1.0
e 252 207 1.0
e 252 119 1.0
e 253 220 2.0
e 253 119 1.0
e 253 256 5.0
e 253 286 1.0
e 254 312 1.0
e 254 44 1.0
e 254 25 1.0
e 254 137 1.0
e 255 21 1.0
e 255 31 1.0
e 255 40 7.0
e 255 170 31.0
e 256 273 15.0
e 256 308 21.0
e 256 231 25.0
e 256 202 11.0
e 256 125 35.0
e 257 27 1.0
e 257 88 3.0
e 257 216 15.0
e 257 184 1.0
e 258 81 2.0
e 258 130 1.0
e 258 4 1.0
e 258 123 42.0
e 259 174 1.0
e 259 19 1.0
e 259 29 1.0
e 259 94 2.0
e 260 78 1.0
e 260 236 1.0
e 260 114 1.0
e 260 155 1.0
e 261 262 5.0
e 261 238 2.0
e 261 159 2.0
e 261 40 5.0
e 262 54 26.0
e 262 26 3.0
e 262 122 18.0
e 263 176 27.0
e 263 316 2.0
e 263 165 1.0
e 263 33 1.0
e 264 194 14.0
e 264 46 21.0
e 264 196 17.0
e 264 285 4.0
e 264 216 43.0
e 265 44 1.0
e 265 143 1.0
e 265 31 1.0
e 265 281 1.0
e 266 107 31.0
e 266 129 1.0
e 266 28 2.0
e 266 120 1.0
e 267 82 1.0
e 267 318 1.0
e 267 111 1.0
e 267 19 2.0
e 268 226 1.0
e 268 295 46.0
e 269 94 1.0
e 269 50 1.0
e 269 8 1.0
e 269 225 1.0
e 270 90 4.0
e 270 113 17.0
e 270 80 6.0
e 270 27 27.0
e 270 248 9.0
e 270 167 37.0
e 270 219 34.0
e 271 269 48.0
e 271 246 14.0
e 271 24 9.0
e 271 98 27.0
e 271 172 34.0
e 272 191 2.0
e 272 229 1.0
e 272 194 1.0
e 272 21 1.0
e 273 88 1.0
e 273 115 1.0
e 273 254 1.0
e 273 162 2.0
e 274 42 1.0
e 274 102 32.0
e 274 280 1.0
e 274 8 25.0
e 275 274 1.0
e 275 302 1.0
e 275 81 2.0
e 275 39 1.0
e 276 39 1.0
e 276 227 1.0
e 276 109 1.0
e 276 49 1.0
e 277 54 1.0
e 277 133 1.0
e 277 9 1.0
e 277 268 2.0
e 278 232 2.0
e 278 311 9.0
e 278 200 33.0
e 278 260 22.0
e 279 212 38.0
e 279 262 7.0
e 279 34 1.0
e 279 57 1.0
e 280 164 1.0
e 280 19 1.0
e 280 166 1.0
e 280 150 3.0
e 281 230 1.0
e 281 306 1.0
e 281 189 26.0
e 281 295 45.0
e 282 144 37.0
e 282 103 7.0
e 282 209 36.0
e 282 280 27.0
e 283 3 2.0
e 283 169 2.0
e 283 191 1.0
e 283 282 43.0
e 284 110 1.0
e 284 17 2.0
e 284 228 1.0
e 284 291 1.0
e 285 163 1.0
e 285 310 2.0
e 285 91 2.0
e 285 128 2.0
e 286 44 1.0
e 286 148 1.0
e 286 226 3.0
e 286 189 49.0
e 287 162 2.0
e 287 112 2.0
e 287 243 1.0
e 287 159 1.0
e 288 224 2.0
e 288 221 1.0
e 288 169 1.0
e 288 294 1.0
e 289 18 1.0
e 289 66 1.0
e 289 309 1.0
e 289 81 1.0
e 290 14 1.0
e 290 50 1.0
e 290 95 1.0
e 290 140 43.0
e 291 119 1.0
e 291 122 1.0
e 291 233 1.0
e 291 186 1.0
e 292 49 17.0
e 292 223 20.0
e 292 256 46.0
e 292 134 2.0
e 292 183 36.0
e 292 189 32.0
e 293 201 41.0
e 293 97 1.0
e 293 17 1.0
e 293 239 1.0
e 294 81 2.0
e 294 48 1.0
e 294 273 2.0
e 294 313 19.0
e 295 212 19.0
e 295 8 33.0
e 295 223 41.0
e 295 267 14.0
e 295 193 10.0
e 295 256 28.0
e 296 177 1.0
e 296 225 3.0
e 296 61 31.0
e 296 156 2.0
e 297 81 2.0
e 297 106 1.0
e 297 50 2.0
e 297 122 1.0
e 298 233 18.0
e 298 217 18.0
e 298 96 47.0
e 298 243 23.0
e 298 264 46.0
e 298 270 6.0
e 298 271 30.0
e 299 300 1.0
e 299 129 1.0
e 299 75 1.0
e 299 302 1.0
e 300 34 1.0
e 300 302 2.0
e 300 98 1.0
e 300 12 1.0
e 301 270 30.0
e 301 32 1.0
e 301 264 40.0
e 301 224 2.0
e 302 142 1.0
e 302 196 21.0
e 302 308 1.0
e 302 39 1.0
e 303 262 44.0
e 303 98 2.0
e 303 162 1.0
e 303 92 1.0
e 304 271 19.0
e 304 308 1.0
e 304 83 1.0
e 304 158 43.0
e 305 18 1.0
e 305 55 1.0
e 305 154 2.0
e 305 197 1.0
e 306 231 1.0
e 306 195 1.0
e 306 174 1.0
e 306 250 1.0
e 307 26 1.0
e 307 306 1.0
e 307 243 1.0
e 307 251 1.0
e 308 90 1.0
e 308 157 1.0
e 308 186 1.0
e 308 9 1.0
e 309 126 1.0
e 309 63 1.0
e 309 62 1.0
e 309 77 1.0
e 310 23 1.0
e 310 284 1.0
e 310 268 2.0
e 311 104 1.0
e 311 316 1.0
e 311 261 1.0
e 311 122 1.0
e 312 188 2.0
e 312 48 1.0
e 312 81 2.0
e 312 28 2.0
e 313 200 12.0
e 313 47 28.0
e 313 103 46.0
e 313 190 49.0
e 314 123 19.0
e 314 53 1.0
e 314 317 1.0
e 314 112 1.0
e 315 217 1.0
e 315 273 1.0
e 315 114 1.0
e 315 127 1.0
e 316 168 1.0
e 316 119 1.0
e 316 195 1.0
e 316 96 30.0
e 317 240 1.0
e 317 267 1.0
e 317 256 2.0
e 318 108 1.0
e 318 70 1.0
e 318 225 1.0
e 318 25 1.0
e 319 231 1.0
e 319 244 2.0
e 319 185 1.0
e 319 228 2.0
